************************************************************************
file with basedata            : md372_.bas
initial value random generator: 177413554
************************************************************************
projects                      :  1
jobs (incl. supersource/sink ):  22
horizon                       :  158
RESOURCES
  - renewable                 :  2   R
  - nonrenewable              :  2   N
  - doubly constrained        :  0   D
************************************************************************
PROJECT INFORMATION:
pronr.  #jobs rel.date duedate tardcost  MPM-Time
    1     20      0       24       12       24
************************************************************************
PRECEDENCE RELATIONS:
jobnr.    #modes  #successors   successors
   1        1          3           2   3   4
   2        3          3           7  13  16
   3        3          3           5   6  12
   4        3          1          16
   5        3          3          11  14  18
   6        3          3           8   9  11
   7        3          1          10
   8        3          1          15
   9        3          3          10  16  18
  10        3          3          14  15  19
  11        3          1          21
  12        3          1          13
  13        3          3          14  15  19
  14        3          2          17  20
  15        3          2          17  20
  16        3          1          19
  17        3          1          21
  18        3          2          20  21
  19        3          1          22
  20        3          1          22
  21        3          1          22
  22        1          0        
************************************************************************
REQUESTS/DURATIONS:
jobnr. mode duration  R 1  R 2  N 1  N 2
------------------------------------------------------------------------
  1      1     0       0    0    0    0
  2      1     2       0    8    4    7
         2     6       0    7    3    6
         3     6       0    6    4    6
  3      1     4       0    8    9    9
         2     6       5    0    8    6
         3    10       5    0    5    6
  4      1     5       0    9    8    8
         2     6       4    0    6    5
         3     9       0    8    6    2
  5      1     5       9    0    8    2
         2     7       6    0    7    2
         3    10       5    0    6    2
  6      1     2       0    8    7    8
         2     4       0    5    1    7
         3     4       3    0    5    8
  7      1     2       5    0    8    3
         2     4       0    7    5    1
         3     4       3    0    2    1
  8      1     1       7    0    8    8
         2     1       0    7    7    8
         3     4       7    0    6    6
  9      1     6       0    6    8    9
         2     7       2    0    4    7
         3     8       1    0    4    3
 10      1     3       0   10    7    7
         2     7       0    6    7    6
         3    10       9    0    4    6
 11      1     2       0    4    8    6
         2     9       0    1    2    6
         3     9       5    0    6    5
 12      1     5       0    5    7    3
         2     5       5    0    9    5
         3    10       5    0    6    3
 13      1     3       0    6    9    8
         2     4       5    0    8    6
         3     6       0    6    7    5
 14      1     1       0    4    2    5
         2     1       4    0    2    6
         3     2       0    4    2    4
 15      1     3       0    7    9    8
         2     6       0    3    6    7
         3     9       6    0    3    7
 16      1     3       0    7    7    5
         2     7       0    6    6    5
         3    10       0    6    5    5
 17      1     4       0    9    8   10
         2     6       0    8    8    8
         3    10       0    6    8    8
 18      1     1       3    0    6    7
         2     8       1    0    4    7
         3    10       0    8    3    4
 19      1     5       0    7    9    6
         2     6       0    6    5    5
         3     9       0    6    1    3
 20      1     4       9    0    6    6
         2     9       8    0    4    5
         3    10       6    0    2    3
 21      1     2       7    0    5    8
         2     4       0    4    4    5
         3     8       5    0    3    2
 22      1     0       0    0    0    0
************************************************************************
RESOURCEAVAILABILITIES:
  R 1  R 2  N 1  N 2
   23   29  129  124
************************************************************************
MAXIMAL LAGS:
from  to  type  delay
    1   12   ES      0
    1    2   ES      0
    2   12   ES      0
    1    3   ES      0
    3   12   ES      0
    1    4   ES      0
    4   12   ES      0
    1    5   ES      0
    5   12   ES      0
    1    6   ES      0
    6   12   ES      0
    1    7   ES      0
    7   12   ES      0
    1    8   ES      0
    8   12   ES      0
    1    9   ES      0
    9   12   ES      0
    1   10   ES      0
   10   12   ES      0
    1   11   ES      0
   11   12   ES      0
    1   12   ES      0
    2    7   SS     -6
    2    7   SE      2
    2    7   ES     -5
    2    7   EE      7
    2   13   SS      0
    2   13   SE     -2
    2   13   ES     11
    2   13   EE     -7
    2   16   SS     -3
    2   16   SE     -7
    2   16   ES      3
    2   16   EE      9
    3    5   SS      1
    3    5   SE    -12
    3    5   ES     10
    3    5   EE      3
    3    6   SS     -3
    3    6   SE      9
    3    6   ES      9
    3    6   EE     -9
    4   16   SS     -3
    4   16   SE      1
    4   16   ES     -4
    4   16   EE     12
    5   11   SS     -4
    5   11   SE    -12
    5   11   ES     -7
    5   11   EE      1
    5   14   SS     10
    5   14   SE     -9
    5   14   ES     -6
    5   14   EE     -1
    5   18   SS     -6
    5   18   SE     -3
    5   18   ES     -8
    5   18   EE     -2
    6    8   SS     -1
    6    8   SE     -2
    8    6   SE      0
    6    8   ES      0
    6    8   EE    -10
    6    9   SS      5
    6    9   SE     -6
    6    9   ES     -8
    6    9   EE      1
    6   11   SS     11
    6   11   SE     -8
    6   11   ES    -10
    6   11   EE     -6
    7   10   SS      5
    7   10   SE     -4
    7   10   ES     -9
    7   10   EE     10
    8   15   SS     -1
    8   15   SE     -1
    8   15   ES    -10
    8   15   EE    -12
    9   10   SS      6
    9   10   SE      9
    9   10   ES     -1
    9   10   EE     -4
    9   16   SS     -8
    9   16   SE      8
    9   16   ES     -1
    9   16   EE     12
    9   18   SS     -8
    9   18   SE      3
    9   18   ES     -2
    9   18   EE    -12
   10   14   SS     -1
   10   14   SE      0
   10   14   ES      5
   10   14   EE      4
   10   15   SS      8
   10   15   SE    -11
   10   15   ES      4
   10   15   EE     -4
   10   19   SS      8
   10   19   SE      4
   10   19   ES     -7
   10   19   EE     10
   11   21   SS    -12
   11   21   SE      2
   11   21   ES     -7
   11   21   EE      3
   12   13   SS    -10
   12   13   SE     -8
   12   13   ES      0
   12   13   EE     -6
   13   14   SS     -6
   13   14   SE     -3
   13   14   ES    -11
   13   14   EE     10
   13   15   SS      9
   13   15   SE     -7
   13   15   ES      9
   13   15   EE      7
   13   19   SS     -6
   13   19   SE      3
   13   19   ES      4
   13   19   EE     -9
   14   17   SS     11
   14   17   SE     -5
   14   17   ES     -8
   14   17   EE      1
   14   20   SS      3
   14   20   SE     -7
   14   20   ES      2
   14   20   EE     -5
   15   17   SS     -5
   15   17   SE     -8
   15   17   ES      1
   15   17   EE     -8
   15   20   SS      2
   15   20   SE      2
   15   20   ES     11
   15   20   EE      1
   16   19   SS      2
   16   19   SE     -3
   16   19   ES      1
   16   19   EE      7
   17   21   SS     -2
   17   21   SE      4
   17   21   ES      4
   17   21   EE     -9
   18   20   SS      6
   18   20   SE      8
   18   20   ES     -3
   18   20   EE     12
   18   21   SS      0
   18   21   SE      5
   18   21   ES      2
   18   21   EE      8
   19   22   SS     10
   19   22   SE      2
   19   22   ES     12
   19   22   EE     -3
   20   22   SS      6
   20   22   SE      9
   20   22   ES     -8
   20   22   EE      6
   21   22   SS     -3
   21   22   SE     -4
   21   22   ES      7
   21   22   EE      7
************************************************************************
